; Copyright (c) 2026 The RIINA Authors. All rights reserved.
; Auto-generated from 02_FORMAL/coq/domains/CompilerCorrectness.v (78 validations)
; Generated by scripts/generate-full-stack.py
;
; Translation Validation for CompilerCorrectness
; Layer 9: Verifies compiler backend preserves formal semantics.
; Each assertion checks source IR ≡ target code for a proven property.

(set-logic QF_LIA)
(set-option :produce-models true)

; IR node representation
(declare-sort IRNode 0)
(declare-sort TargetNode 0)

; parsing_correct: source semantics (matches Coq)
(declare-fun source_parsing_correct () Bool)
(declare-fun target_parsing_correct () Bool)
(assert (= source_parsing_correct target_parsing_correct))

; typecheck_sound: source semantics (matches Coq)
(declare-fun source_typecheck_sound () Bool)
(declare-fun target_typecheck_sound () Bool)
(assert (= source_typecheck_sound target_typecheck_sound))

; optimization_safe: source semantics (matches Coq)
(declare-fun source_optimization_safe () Bool)
(declare-fun target_optimization_safe () Bool)
(assert (= source_optimization_safe target_optimization_safe))

; codegen_correct: source semantics (matches Coq)
(declare-fun source_codegen_correct () Bool)
(declare-fun target_codegen_correct () Bool)
(assert (= source_codegen_correct target_codegen_correct))

; compiler_verified: source semantics (matches Coq)
(declare-fun source_compiler_verified () Bool)
(declare-fun target_compiler_verified () Bool)
(assert (= source_compiler_verified target_compiler_verified))

; riina_parsing: source semantics (matches Coq)
(declare-fun source_riina_parsing () Bool)
(declare-fun target_riina_parsing () Bool)
(assert (= source_riina_parsing target_riina_parsing))

; riina_typecheck: source semantics (matches Coq)
(declare-fun source_riina_typecheck () Bool)
(declare-fun target_riina_typecheck () Bool)
(assert (= source_riina_typecheck target_riina_typecheck))

; riina_optim: source semantics (matches Coq)
(declare-fun source_riina_optim () Bool)
(declare-fun target_riina_optim () Bool)
(assert (= source_riina_optim target_riina_optim))

; riina_codegen: source semantics (matches Coq)
(declare-fun source_riina_codegen () Bool)
(declare-fun target_riina_codegen () Bool)
(assert (= source_riina_codegen target_riina_codegen))

; riina_compiler: source semantics (matches Coq)
(declare-fun source_riina_compiler () Bool)
(declare-fun target_riina_compiler () Bool)
(assert (= source_riina_compiler target_riina_compiler))

; ir_equiv: source semantics (matches Coq)
(declare-fun source_ir_equiv () Bool)
(declare-fun target_ir_equiv () Bool)
(assert (= source_ir_equiv target_ir_equiv))

; src_ir_equiv: source semantics (matches Coq)
(declare-fun source_src_ir_equiv () Bool)
(declare-fun target_src_ir_equiv () Bool)
(assert (= source_src_ir_equiv target_src_ir_equiv))

; andb_true_iff: translation preserves property (matches Coq: Lemma)
(declare-fun source_andb_true_iff () Bool)
(declare-fun target_andb_true_iff () Bool)
(assert (= source_andb_true_iff target_andb_true_iff))

; CC_001: translation preserves property (matches Coq: Theorem)
(declare-fun source_CC_001 () Bool)
(declare-fun target_CC_001 () Bool)
(assert (= source_CC_001 target_CC_001))

; CC_002: translation preserves property (matches Coq: Theorem)
(declare-fun source_CC_002 () Bool)
(declare-fun target_CC_002 () Bool)
(assert (= source_CC_002 target_CC_002))

; CC_003: translation preserves property (matches Coq: Theorem)
(declare-fun source_CC_003 () Bool)
(declare-fun target_CC_003 () Bool)
(assert (= source_CC_003 target_CC_003))

; CC_004: translation preserves property (matches Coq: Theorem)
(declare-fun source_CC_004 () Bool)
(declare-fun target_CC_004 () Bool)
(assert (= source_CC_004 target_CC_004))

; CC_005: translation preserves property (matches Coq: Theorem)
(declare-fun source_CC_005 () Bool)
(declare-fun target_CC_005 () Bool)
(assert (= source_CC_005 target_CC_005))

; CC_006: translation preserves property (matches Coq: Theorem)
(declare-fun source_CC_006 () Bool)
(declare-fun target_CC_006 () Bool)
(assert (= source_CC_006 target_CC_006))

; CC_007: translation preserves property (matches Coq: Theorem)
(declare-fun source_CC_007 () Bool)
(declare-fun target_CC_007 () Bool)
(assert (= source_CC_007 target_CC_007))

; CC_008: translation preserves property (matches Coq: Theorem)
(declare-fun source_CC_008 () Bool)
(declare-fun target_CC_008 () Bool)
(assert (= source_CC_008 target_CC_008))

; CC_009: translation preserves property (matches Coq: Theorem)
(declare-fun source_CC_009 () Bool)
(declare-fun target_CC_009 () Bool)
(assert (= source_CC_009 target_CC_009))

; CC_010: translation preserves property (matches Coq: Theorem)
(declare-fun source_CC_010 () Bool)
(declare-fun target_CC_010 () Bool)
(assert (= source_CC_010 target_CC_010))

; CC_011: translation preserves property (matches Coq: Theorem)
(declare-fun source_CC_011 () Bool)
(declare-fun target_CC_011 () Bool)
(assert (= source_CC_011 target_CC_011))

; CC_012: translation preserves property (matches Coq: Theorem)
(declare-fun source_CC_012 () Bool)
(declare-fun target_CC_012 () Bool)
(assert (= source_CC_012 target_CC_012))

; CC_013: translation preserves property (matches Coq: Theorem)
(declare-fun source_CC_013 () Bool)
(declare-fun target_CC_013 () Bool)
(assert (= source_CC_013 target_CC_013))

; CC_014: translation preserves property (matches Coq: Theorem)
(declare-fun source_CC_014 () Bool)
(declare-fun target_CC_014 () Bool)
(assert (= source_CC_014 target_CC_014))

; CC_015: translation preserves property (matches Coq: Theorem)
(declare-fun source_CC_015 () Bool)
(declare-fun target_CC_015 () Bool)
(assert (= source_CC_015 target_CC_015))

; CC_016: translation preserves property (matches Coq: Theorem)
(declare-fun source_CC_016 () Bool)
(declare-fun target_CC_016 () Bool)
(assert (= source_CC_016 target_CC_016))

; CC_017: translation preserves property (matches Coq: Theorem)
(declare-fun source_CC_017 () Bool)
(declare-fun target_CC_017 () Bool)
(assert (= source_CC_017 target_CC_017))

; CC_018: translation preserves property (matches Coq: Theorem)
(declare-fun source_CC_018 () Bool)
(declare-fun target_CC_018 () Bool)
(assert (= source_CC_018 target_CC_018))

; CC_019: translation preserves property (matches Coq: Theorem)
(declare-fun source_CC_019 () Bool)
(declare-fun target_CC_019 () Bool)
(assert (= source_CC_019 target_CC_019))

; CC_020: translation preserves property (matches Coq: Theorem)
(declare-fun source_CC_020 () Bool)
(declare-fun target_CC_020 () Bool)
(assert (= source_CC_020 target_CC_020))

; CC_021: translation preserves property (matches Coq: Theorem)
(declare-fun source_CC_021 () Bool)
(declare-fun target_CC_021 () Bool)
(assert (= source_CC_021 target_CC_021))

; CC_022: translation preserves property (matches Coq: Theorem)
(declare-fun source_CC_022 () Bool)
(declare-fun target_CC_022 () Bool)
(assert (= source_CC_022 target_CC_022))

; CC_023: translation preserves property (matches Coq: Theorem)
(declare-fun source_CC_023 () Bool)
(declare-fun target_CC_023 () Bool)
(assert (= source_CC_023 target_CC_023))

; CC_024: translation preserves property (matches Coq: Theorem)
(declare-fun source_CC_024 () Bool)
(declare-fun target_CC_024 () Bool)
(assert (= source_CC_024 target_CC_024))

; CC_025: translation preserves property (matches Coq: Theorem)
(declare-fun source_CC_025 () Bool)
(declare-fun target_CC_025 () Bool)
(assert (= source_CC_025 target_CC_025))

; CC_026: translation preserves property (matches Coq: Theorem)
(declare-fun source_CC_026 () Bool)
(declare-fun target_CC_026 () Bool)
(assert (= source_CC_026 target_CC_026))

; CC_027: translation preserves property (matches Coq: Theorem)
(declare-fun source_CC_027 () Bool)
(declare-fun target_CC_027 () Bool)
(assert (= source_CC_027 target_CC_027))

; CC_028: translation preserves property (matches Coq: Theorem)
(declare-fun source_CC_028 () Bool)
(declare-fun target_CC_028 () Bool)
(assert (= source_CC_028 target_CC_028))

; CC_029: translation preserves property (matches Coq: Theorem)
(declare-fun source_CC_029 () Bool)
(declare-fun target_CC_029 () Bool)
(assert (= source_CC_029 target_CC_029))

; CC_030_complete: translation preserves property (matches Coq: Theorem)
(declare-fun source_CC_030_complete () Bool)
(declare-fun target_CC_030_complete () Bool)
(assert (= source_CC_030_complete target_CC_030_complete))

; ir_value_not_step: translation preserves property (matches Coq: Lemma)
(declare-fun source_ir_value_not_step () Bool)
(declare-fun target_ir_value_not_step () Bool)
(assert (= source_ir_value_not_step target_ir_value_not_step))

; ir_preservation: translation preserves property (matches Coq: Theorem)
(declare-fun source_ir_preservation () Bool)
(declare-fun target_ir_preservation () Bool)
(assert (= source_ir_preservation target_ir_preservation))

; ir_multi_preservation: translation preserves property (matches Coq: Theorem)
(declare-fun source_ir_multi_preservation () Bool)
(declare-fun target_ir_multi_preservation () Bool)
(assert (= source_ir_multi_preservation target_ir_multi_preservation))

; ir_pair_value_not_step: translation preserves property (matches Coq: Lemma)
(declare-fun source_ir_pair_value_not_step () Bool)
(declare-fun target_ir_pair_value_not_step () Bool)
(assert (= source_ir_pair_value_not_step target_ir_pair_value_not_step))

; ir_bool_not_step: translation preserves property (matches Coq: Lemma)
(declare-fun source_ir_bool_not_step () Bool)
(declare-fun target_ir_bool_not_step () Bool)
(assert (= source_ir_bool_not_step target_ir_bool_not_step))

; ir_step_deterministic: translation preserves property (matches Coq: Theorem)
(declare-fun source_ir_step_deterministic () Bool)
(declare-fun target_ir_step_deterministic () Bool)
(assert (= source_ir_step_deterministic target_ir_step_deterministic))

; ir_progress: translation preserves property (matches Coq: Theorem)
(declare-fun source_ir_progress () Bool)
(declare-fun target_ir_progress () Bool)
(assert (= source_ir_progress target_ir_progress))

; ir_equiv_refl: translation preserves property (matches Coq: Theorem)
(declare-fun source_ir_equiv_refl () Bool)
(declare-fun target_ir_equiv_refl () Bool)
(assert (= source_ir_equiv_refl target_ir_equiv_refl))

; ir_equiv_sym: translation preserves property (matches Coq: Theorem)
(declare-fun source_ir_equiv_sym () Bool)
(declare-fun target_ir_equiv_sym () Bool)
(assert (= source_ir_equiv_sym target_ir_equiv_sym))

; ir_equiv_trans: translation preserves property (matches Coq: Theorem)
(declare-fun source_ir_equiv_trans () Bool)
(declare-fun target_ir_equiv_trans () Bool)
(assert (= source_ir_equiv_trans target_ir_equiv_trans))

; ir_multi_trans: translation preserves property (matches Coq: Lemma)
(declare-fun source_ir_multi_trans () Bool)
(declare-fun target_ir_multi_trans () Bool)
(assert (= source_ir_multi_trans target_ir_multi_trans))

; ir_multi_pair_cong1: translation preserves property (matches Coq: Lemma)
(declare-fun source_ir_multi_pair_cong1 () Bool)
(declare-fun target_ir_multi_pair_cong1 () Bool)
(assert (= source_ir_multi_pair_cong1 target_ir_multi_pair_cong1))

; ir_multi_pair_cong2: translation preserves property (matches Coq: Lemma)
(declare-fun source_ir_multi_pair_cong2 () Bool)
(declare-fun target_ir_multi_pair_cong2 () Bool)
(assert (= source_ir_multi_pair_cong2 target_ir_multi_pair_cong2))

; opt_if_true_sound: translation preserves property (matches Coq: Theorem)
(declare-fun source_opt_if_true_sound () Bool)
(declare-fun target_opt_if_true_sound () Bool)
(assert (= source_opt_if_true_sound target_opt_if_true_sound))

; opt_if_false_sound: translation preserves property (matches Coq: Theorem)
(declare-fun source_opt_if_false_sound () Bool)
(declare-fun target_opt_if_false_sound () Bool)
(assert (= source_opt_if_false_sound target_opt_if_false_sound))

; opt_fst_pair_sound: translation preserves property (matches Coq: Theorem)
(declare-fun source_opt_fst_pair_sound () Bool)
(declare-fun target_opt_fst_pair_sound () Bool)
(assert (= source_opt_fst_pair_sound target_opt_fst_pair_sound))

; opt_snd_pair_sound: translation preserves property (matches Coq: Theorem)
(declare-fun source_opt_snd_pair_sound () Bool)
(declare-fun target_opt_snd_pair_sound () Bool)
(assert (= source_opt_snd_pair_sound target_opt_snd_pair_sound))

; ir_value_normal: translation preserves property (matches Coq: Theorem)
(declare-fun source_ir_value_normal () Bool)
(declare-fun target_ir_value_normal () Bool)
(assert (= source_ir_value_normal target_ir_value_normal))

; ir_value_reduces_self: translation preserves property (matches Coq: Theorem)
(declare-fun source_ir_value_reduces_self () Bool)
(declare-fun target_ir_value_reduces_self () Bool)
(assert (= source_ir_value_reduces_self target_ir_value_reduces_self))

; equiv_preserves_typing: translation preserves property (matches Coq: Theorem)
(declare-fun source_equiv_preserves_typing () Bool)
(declare-fun target_equiv_preserves_typing () Bool)
(assert (= source_equiv_preserves_typing target_equiv_preserves_typing))

; src_value_not_step: translation preserves property (matches Coq: Lemma)
(declare-fun source_src_value_not_step () Bool)
(declare-fun target_src_value_not_step () Bool)
(assert (= source_src_value_not_step target_src_value_not_step))

; src_step_deterministic: translation preserves property (matches Coq: Theorem)
(declare-fun source_src_step_deterministic () Bool)
(declare-fun target_src_step_deterministic () Bool)
(assert (= source_src_step_deterministic target_src_step_deterministic))

; src_preservation: translation preserves property (matches Coq: Theorem)
(declare-fun source_src_preservation () Bool)
(declare-fun target_src_preservation () Bool)
(assert (= source_src_preservation target_src_preservation))

; src_progress: translation preserves property (matches Coq: Theorem)
(declare-fun source_src_progress () Bool)
(declare-fun target_src_progress () Bool)
(assert (= source_src_progress target_src_progress))

; compile_preserves_value: translation preserves property (matches Coq: Theorem)
(declare-fun source_compile_preserves_value () Bool)
(declare-fun target_compile_preserves_value () Bool)
(assert (= source_compile_preserves_value target_compile_preserves_value))

; compile_preserves_typing: translation preserves property (matches Coq: Theorem)
(declare-fun source_compile_preserves_typing () Bool)
(declare-fun target_compile_preserves_typing () Bool)
(assert (= source_compile_preserves_typing target_compile_preserves_typing))

; compile_forward_simulation: translation preserves property (matches Coq: Theorem)
(declare-fun source_compile_forward_simulation () Bool)
(declare-fun target_compile_forward_simulation () Bool)
(assert (= source_compile_forward_simulation target_compile_forward_simulation))

; compile_forward_multi_simulation: translation preserves property (matches Coq: Theorem)
(declare-fun source_compile_forward_multi_simulation () Bool)
(declare-fun target_compile_forward_multi_simulation () Bool)
(assert (= source_compile_forward_multi_simulation target_compile_forward_multi_simulation))

; compile_value_inv: translation preserves property (matches Coq: Lemma)
(declare-fun source_compile_value_inv () Bool)
(declare-fun target_compile_value_inv () Bool)
(assert (= source_compile_value_inv target_compile_value_inv))

; compile_backward_simulation: translation preserves property (matches Coq: Theorem)
(declare-fun source_compile_backward_simulation () Bool)
(declare-fun target_compile_backward_simulation () Bool)
(assert (= source_compile_backward_simulation target_compile_backward_simulation))

; compile_establishes_equiv: translation preserves property (matches Coq: Theorem)
(declare-fun source_compile_establishes_equiv () Bool)
(declare-fun target_compile_establishes_equiv () Bool)
(assert (= source_compile_establishes_equiv target_compile_establishes_equiv))

; equiv_preserved_forward: translation preserves property (matches Coq: Theorem)
(declare-fun source_equiv_preserved_forward () Bool)
(declare-fun target_equiv_preserved_forward () Bool)
(assert (= source_equiv_preserved_forward target_equiv_preserved_forward))

; compile_terminates_equivalently: translation preserves property (matches Coq: Theorem)
(declare-fun source_compile_terminates_equivalently () Bool)
(declare-fun target_compile_terminates_equivalently () Bool)
(assert (= source_compile_terminates_equivalently target_compile_terminates_equivalently))

; compile_type_safety: translation preserves property (matches Coq: Theorem)
(declare-fun source_compile_type_safety () Bool)
(declare-fun target_compile_type_safety () Bool)
(assert (= source_compile_type_safety target_compile_type_safety))

; opt_dead_code_if_true: translation preserves property (matches Coq: Theorem)
(declare-fun source_opt_dead_code_if_true () Bool)
(declare-fun target_opt_dead_code_if_true () Bool)
(assert (= source_opt_dead_code_if_true target_opt_dead_code_if_true))

; opt_dead_code_if_false: translation preserves property (matches Coq: Theorem)
(declare-fun source_opt_dead_code_if_false () Bool)
(declare-fun target_opt_dead_code_if_false () Bool)
(assert (= source_opt_dead_code_if_false target_opt_dead_code_if_false))

; opt_fst_pair_typed: translation preserves property (matches Coq: Theorem)
(declare-fun source_opt_fst_pair_typed () Bool)
(declare-fun target_opt_fst_pair_typed () Bool)
(assert (= source_opt_fst_pair_typed target_opt_fst_pair_typed))

; opt_snd_pair_typed: translation preserves property (matches Coq: Theorem)
(declare-fun source_opt_snd_pair_typed () Bool)
(declare-fun target_opt_snd_pair_typed () Bool)
(assert (= source_opt_snd_pair_typed target_opt_snd_pair_typed))

; const_prop_bool: translation preserves property (matches Coq: Theorem)
(declare-fun source_const_prop_bool () Bool)
(declare-fun target_const_prop_bool () Bool)
(assert (= source_const_prop_bool target_const_prop_bool))

; const_prop_int: translation preserves property (matches Coq: Theorem)
(declare-fun source_const_prop_int () Bool)
(declare-fun target_const_prop_int () Bool)
(assert (= source_const_prop_int target_const_prop_int))

; const_prop_unit: translation preserves property (matches Coq: Theorem)
(declare-fun source_const_prop_unit () Bool)
(declare-fun target_const_prop_unit () Bool)
(assert (= source_const_prop_unit target_const_prop_unit))

; parsing_correct_prop: translation preserves property (matches Coq: Theorem)
(declare-fun source_parsing_correct_prop () Bool)
(declare-fun target_parsing_correct_prop () Bool)
(assert (= source_parsing_correct_prop target_parsing_correct_prop))

; optimization_relation_reflexive: translation preserves property (matches Coq: Theorem)
(declare-fun source_optimization_relation_reflexive () Bool)
(declare-fun target_optimization_relation_reflexive () Bool)
(assert (= source_optimization_relation_reflexive target_optimization_relation_reflexive))

; optimization_relation_symmetric: translation preserves property (matches Coq: Theorem)
(declare-fun source_optimization_relation_symmetric () Bool)
(declare-fun target_optimization_relation_symmetric () Bool)
(assert (= source_optimization_relation_symmetric target_optimization_relation_symmetric))

; optimization_relation_transitive: translation preserves property (matches Coq: Theorem)
(declare-fun source_optimization_relation_transitive () Bool)
(declare-fun target_optimization_relation_transitive () Bool)
(assert (= source_optimization_relation_transitive target_optimization_relation_transitive))

; full_pipeline_correctness: translation preserves property (matches Coq: Theorem)
(declare-fun source_full_pipeline_correctness () Bool)
(declare-fun target_full_pipeline_correctness () Bool)
(assert (= source_full_pipeline_correctness target_full_pipeline_correctness))

; full_pipeline_termination: translation preserves property (matches Coq: Theorem)
(declare-fun source_full_pipeline_termination () Bool)
(declare-fun target_full_pipeline_termination () Bool)
(assert (= source_full_pipeline_termination target_full_pipeline_termination))

; Verify all translation validations are satisfiable
(check-sat)
(exit)
